# 15152
param k := 6;
param n := 60;
param s := 1;
set E :=  (0,10) (0,12) (0,41) (1,24) (1,25) (2,15) (2,56) (3,19) (3,43) (4,23) (5,29) (5,54) (6,52) (6,57) (7,47) (8,28) (9,29) (10,57) (11,30) (12,20) (12,39) (13,32) (14,53) (15,16) (15,34) (15,35) (16,25) (17,22) (18,40) (18,48) (19,23) (21,22) (21,45) (21,58) (23,59) (24,30) (24,36) (25,42) (26,46) (26,51) (27,55) (28,30) (29,31) (30,32) (30,48) (30,54) (31,33) (34,44) (35,50) (37,53) (38,56) (41,51) (41,55) (43,54) (47,54) (48,53) (49,58) (54,57) (57,58);